/* Objective function */
min: +C1 +C2 +C3 +C4 +C5 +C6 +C7 +C8;

/* Constraints */
+C9 +C10 +C11 +C12 +C13 +C14 +C15 +C16 = 1;
+C17 +C18 +C19 +C20 +C21 +C22 +C23 +C24 = 1;
+C25 +C26 +C27 +C28 +C29 +C30 +C31 +C32 = 1;
+C33 +C34 +C35 +C36 +C37 +C38 +C39 +C40 = 1;
+C41 +C42 +C43 +C44 +C45 +C46 +C47 +C48 = 1;
+C49 +C50 +C51 +C52 +C53 +C54 +C55 +C56 = 1;
+C57 +C58 +C59 +C60 +C61 +C62 +C63 +C64 = 1;
+C65 +C66 +C67 +C68 +C69 +C70 +C71 +C72 = 1;
+0.97 C9 +4.563 C17 +1.665 C25 +1.2234 C33 +2.34 C41 +2.223 C49 +2.674578 C57 +4 C65 <= 4.997;
+10 C9 +23.455 C17 +12.3497 C25 +29.332 C33 +0.03344 C41 +24.53 C49 +1.23 C57 +14.42 C65 <= 30.5;
+0.97 C10 +4.563 C18 +1.665 C26 +1.2234 C34 +2.34 C42 +2.223 C50 +2.674578 C58 +4 C66 <= 4.997;
+10 C10 +23.455 C18 +12.3497 C26 +29.332 C34 +0.03344 C42 +24.53 C50 +1.23 C58 +14.42 C66 <= 30.5;
+0.97 C11 +4.563 C19 +1.665 C27 +1.2234 C35 +2.34 C43 +2.223 C51 +2.674578 C59 +4 C67 <= 4.997;
+10 C11 +23.455 C19 +12.3497 C27 +29.332 C35 +0.03344 C43 +24.53 C51 +1.23 C59 +14.42 C67 <= 30.5;
+0.97 C12 +4.563 C20 +1.665 C28 +1.2234 C36 +2.34 C44 +2.223 C52 +2.674578 C60 +4 C68 <= 4.997;
+10 C12 +23.455 C20 +12.3497 C28 +29.332 C36 +0.03344 C44 +24.53 C52 +1.23 C60 +14.42 C68 <= 30.5;
+0.97 C13 +4.563 C21 +1.665 C29 +1.2234 C37 +2.34 C45 +2.223 C53 +2.674578 C61 +4 C69 <= 4.997;
+10 C13 +23.455 C21 +12.3497 C29 +29.332 C37 +0.03344 C45 +24.53 C53 +1.23 C61 +14.42 C69 <= 30.5;
+0.97 C14 +4.563 C22 +1.665 C30 +1.2234 C38 +2.34 C46 +2.223 C54 +2.674578 C62 +4 C70 <= 4.997;
+10 C14 +23.455 C22 +12.3497 C30 +29.332 C38 +0.03344 C46 +24.53 C54 +1.23 C62 +14.42 C70 <= 30.5;
+0.97 C15 +4.563 C23 +1.665 C31 +1.2234 C39 +2.34 C47 +2.223 C55 +2.674578 C63 +4 C71 <= 4.997;
+10 C15 +23.455 C23 +12.3497 C31 +29.332 C39 +0.03344 C47 +24.53 C55 +1.23 C63 +14.42 C71 <= 30.5;
+0.97 C16 +4.563 C24 +1.665 C32 +1.2234 C40 +2.34 C48 +2.223 C56 +2.674578 C64 +4 C72 <= 4.997;
+10 C16 +23.455 C24 +12.3497 C32 +29.332 C40 +0.03344 C48 +24.53 C56 +1.23 C64 +14.42 C72 <= 30.5;
-10000000 C1 +C9 +C17 +C25 +C33 +C41 +C49 +C57 +C65 <= 0;
-10000000 C2 +C10 +C18 +C26 +C34 +C42 +C50 +C58 +C66 <= 0;
-10000000 C3 +C11 +C19 +C27 +C35 +C43 +C51 +C59 +C67 <= 0;
-10000000 C4 +C12 +C20 +C28 +C36 +C44 +C52 +C60 +C68 <= 0;
-10000000 C5 +C13 +C21 +C29 +C37 +C45 +C53 +C61 +C69 <= 0;
-10000000 C6 +C14 +C22 +C30 +C38 +C46 +C54 +C62 +C70 <= 0;
-10000000 C7 +C15 +C23 +C31 +C39 +C47 +C55 +C63 +C71 <= 0;
-10000000 C8 +C16 +C24 +C32 +C40 +C48 +C56 +C64 +C72 <= 0;

/* Variable bounds */
C1 <= 1;
C2 <= 1;
C3 <= 1;
C4 <= 1;
C5 <= 1;
C6 <= 1;
C7 <= 1;
C8 <= 1;
C9 <= 1;
C10 <= 1;
C11 <= 1;
C12 <= 1;
C13 <= 1;
C14 <= 1;
C15 <= 1;
C16 <= 1;
C17 <= 1;
C18 <= 1;
C19 <= 1;
C20 <= 1;
C21 <= 1;
C22 <= 1;
C23 <= 1;
C24 <= 1;
C25 <= 1;
C26 <= 1;
C27 <= 1;
C28 <= 1;
C29 <= 1;
C30 <= 1;
C31 <= 1;
C32 <= 1;
C33 <= 1;
C34 <= 1;
C35 <= 1;
C36 <= 1;
C37 <= 1;
C38 <= 1;
C39 <= 1;
C40 <= 1;
C41 <= 1;
C42 <= 1;
C43 <= 1;
C44 <= 1;
C45 <= 1;
C46 <= 1;
C47 <= 1;
C48 <= 1;
C49 <= 1;
C50 <= 1;
C51 <= 1;
C52 <= 1;
C53 <= 1;
C54 <= 1;
C55 <= 1;
C56 <= 1;
C57 <= 1;
C58 <= 1;
C59 <= 1;
C60 <= 1;
C61 <= 1;
C62 <= 1;
C63 <= 1;
C64 <= 1;
C65 <= 1;
C66 <= 1;
C67 <= 1;
C68 <= 1;
C69 <= 1;
C70 <= 1;
C71 <= 1;
C72 <= 1;

/* Integer definitions */
int C1,C2,C3,C4,C5,C6,C7,C8,C9,C10,C11,C12,C13,C14,C15,C16,C17,C18,C19,C20,C21,C22,C23,C24,C25,C26,C27,C28,C29,C30,C31,C32,C33,C34,C35,C36,C37,C38,C39,C40,C41,C42,C43,C44,C45,C46,C47,C48,C49,C50,C51,C52,C53,C54,C55,C56,C57,C58,C59,C60,C61,C62,C63,C64,C65,C66,C67,C68,C69,C70,C71,C72;
